benchmarks/INST_36x36/15/inst36x36_15_85.txt
6
1
-1	5	-1	-1	-1	-1	-1	3	-1	28	-1	-1	-1	-1	-1	-1	-1	-1	-1	-1	-1	-1	-1	-1	-1	-1	-1	-1	-1	-1	-1	-1	14	-1	-1	-1
-1	-1	-1	-1	-1	-1	-1	-1	-1	-1	-1	-1	-1	-1	-1	-1	-1	-1	-1	-1	-1	-1	-1	-1	-1	-1	-1	-1	-1	-1	-1	1	-1	-1	-1	-1
-1	-1	-1	-1	-1	2	-1	-1	-1	-1	-1	-1	-1	-1	-1	-1	-1	-1	-1	-1	1	-1	22	-1	-1	19	-1	-1	-1	10	12	-1	-1	-1	-1	-1
15	-1	24	-1	7	-1	11	-1	-1	-1	-1	-1	-1	-1	-1	-1	-1	-1	-1	-1	-1	-1	-1	32	-1	-1	-1	-1	30	25	-1	-1	-1	-1	-1	-1
-1	-1	-1	-1	-1	-1	-1	-1	1	-1	-1	-1	-1	-1	-1	-1	-1	-1	-1	-1	-1	-1	-1	-1	-1	-1	-1	-1	-1	-1	-1	-1	-1	-1	-1	-1
22	-1	-1	-1	34	-1	-1	-1	-1	-1	-1	-1	-1	-1	2	-1	-1	28	-1	18	-1	20	-1	-1	21	1	-1	-1	-1	-1	-1	-1	-1	-1	-1	-1
-1	-1	-1	-1	-1	25	-1	-1	-1	19	33	-1	-1	-1	23	-1	-1	-1	-1	-1	-1	-1	-1	-1	-1	-1	-1	-1	34	-1	-1	-1	-1	13	-1	-1
4	-1	-1	-1	-1	-1	-1	-1	-1	-1	-1	-1	-1	-1	-1	34	-1	-1	13	-1	-1	-1	33	-1	-1	-1	-1	-1	-1	-1	-1	-1	-1	-1	-1	19
-1	-1	-1	-1	-1	-1	-1	-1	-1	-1	-1	-1	-1	-1	15	-1	-1	-1	-1	-1	-1	-1	-1	23	-1	-1	-1	-1	-1	-1	-1	-1	-1	22	-1	-1
-1	-1	15	-1	-1	-1	-1	35	-1	-1	-1	-1	-1	-1	-1	-1	-1	-1	-1	-1	-1	-1	-1	-1	-1	-1	-1	-1	22	30	-1	-1	-1	-1	-1	-1
-1	-1	-1	-1	-1	-1	-1	-1	12	-1	23	-1	-1	-1	-1	-1	-1	-1	-1	-1	-1	-1	-1	28	18	-1	-1	-1	-1	-1	-1	-1	-1	-1	-1	-1
26	-1	-1	-1	-1	-1	-1	-1	-1	10	-1	-1	35	-1	-1	-1	-1	-1	5	-1	-1	-1	3	19	-1	-1	-1	-1	12	-1	-1	-1	-1	33	-1	-1
-1	-1	-1	-1	-1	-1	-1	-1	-1	-1	-1	-1	-1	-1	-1	36	-1	-1	-1	-1	-1	-1	6	-1	-1	-1	19	-1	-1	-1	-1	-1	-1	-1	-1	-1
-1	-1	-1	-1	-1	-1	-1	-1	-1	26	-1	3	-1	35	-1	-1	6	-1	-1	-1	27	-1	-1	-1	-1	36	-1	-1	-1	7	-1	-1	-1	-1	-1	-1
-1	-1	-1	-1	-1	-1	-1	-1	-1	-1	-1	-1	-1	-1	-1	29	-1	-1	-1	28	-1	-1	24	-1	-1	-1	11	-1	-1	-1	35	-1	-1	-1	-1	36
24	-1	-1	26	33	21	-1	-1	-1	14	25	-1	-1	-1	-1	-1	11	-1	-1	-1	-1	-1	-1	-1	-1	-1	17	-1	-1	-1	-1	-1	-1	-1	-1	-1
-1	-1	-1	-1	-1	-1	-1	30	-1	-1	-1	-1	-1	-1	-1	-1	-1	24	-1	-1	-1	-1	-1	-1	28	-1	10	-1	-1	-1	-1	-1	23	12	-1	-1
-1	12	-1	-1	-1	-1	-1	-1	-1	-1	7	-1	-1	-1	30	-1	-1	26	-1	-1	35	-1	-1	-1	-1	-1	18	-1	-1	-1	-1	-1	-1	3	-1	-1
-1	-1	-1	-1	4	-1	-1	-1	-1	-1	-1	-1	-1	19	16	-1	-1	-1	20	-1	24	-1	-1	10	-1	-1	-1	-1	-1	-1	-1	-1	-1	-1	-1	-1
-1	-1	5	-1	-1	33	-1	-1	-1	-1	-1	-1	-1	-1	-1	-1	24	-1	-1	6	-1	-1	-1	-1	27	-1	-1	-1	-1	29	-1	7	-1	-1	34	8
7	24	-1	-1	-1	-1	-1	-1	-1	-1	-1	35	-1	-1	21	-1	-1	-1	-1	-1	-1	-1	-1	-1	-1	-1	-1	36	-1	-1	32	-1	-1	-1	-1	-1
-1	-1	-1	-1	-1	18	-1	-1	-1	-1	-1	-1	-1	-1	35	-1	-1	-1	-1	-1	-1	-1	-1	-1	23	-1	-1	24	-1	-1	-1	-1	-1	16	-1	-1
-1	15	-1	-1	-1	30	24	-1	-1	-1	-1	-1	-1	10	-1	28	-1	-1	-1	-1	-1	-1	-1	-1	-1	-1	-1	-1	-1	-1	-1	-1	-1	-1	23	-1
-1	-1	-1	-1	-1	-1	-1	-1	-1	-1	-1	-1	-1	-1	-1	5	-1	4	-1	32	-1	-1	-1	-1	-1	-1	-1	-1	-1	1	24	31	-1	-1	25	-1
-1	-1	-1	-1	9	-1	27	-1	-1	-1	-1	-1	-1	-1	-1	-1	-1	-1	-1	-1	-1	-1	-1	-1	-1	-1	-1	-1	-1	-1	-1	-1	-1	-1	-1	-1
-1	-1	-1	-1	-1	-1	-1	-1	14	-1	-1	-1	-1	-1	6	10	-1	35	-1	-1	-1	-1	-1	-1	-1	30	-1	-1	-1	-1	16	-1	-1	-1	26	-1
-1	25	-1	5	24	-1	-1	-1	-1	-1	-1	-1	-1	-1	-1	-1	30	-1	-1	-1	-1	-1	-1	-1	12	-1	-1	-1	-1	13	-1	-1	-1	-1	-1	-1
-1	-1	-1	-1	-1	-1	-1	-1	-1	-1	-1	-1	-1	-1	-1	-1	-1	-1	-1	-1	-1	-1	-1	-1	-1	-1	-1	-1	31	-1	23	28	-1	-1	22	-1
-1	-1	-1	28	1	-1	-1	-1	-1	-1	-1	-1	-1	-1	4	-1	-1	14	-1	-1	-1	-1	-1	-1	2	-1	35	-1	6	-1	-1	-1	24	-1	12	-1
-1	-1	-1	-1	-1	-1	-1	-1	-1	31	-1	-1	-1	-1	-1	-1	-1	-1	-1	-1	-1	-1	-1	-1	-1	-1	-1	1	-1	-1	-1	-1	36	-1	-1	11
21	34	23	-1	-1	-1	-1	-1	-1	-1	-1	-1	-1	-1	10	-1	-1	-1	-1	-1	-1	-1	2	-1	6	-1	-1	-1	28	-1	-1	-1	-1	-1	-1	-1
28	-1	-1	-1	-1	-1	30	-1	-1	-1	-1	-1	-1	-1	9	-1	-1	29	-1	-1	-1	-1	-1	-1	-1	-1	-1	-1	-1	-1	-1	-1	-1	-1	-1	-1
-1	-1	-1	-1	-1	-1	-1	-1	-1	-1	-1	-1	-1	-1	-1	-1	-1	-1	-1	-1	-1	-1	9	-1	-1	-1	-1	-1	-1	-1	-1	-1	-1	35	-1	-1
18	-1	-1	-1	-1	-1	-1	-1	-1	-1	-1	-1	-1	-1	-1	12	-1	27	-1	13	-1	-1	-1	-1	-1	-1	-1	7	-1	15	-1	-1	34	-1	-1	-1
-1	-1	-1	-1	-1	-1	-1	8	-1	-1	17	-1	-1	-1	-1	-1	-1	-1	28	-1	-1	-1	-1	34	-1	-1	-1	2	-1	-1	-1	-1	29	-1	30	-1
-1	-1	-1	-1	-1	-1	-1	-1	-1	-1	-1	-1	-1	-1	-1	-1	-1	-1	-1	15	-1	-1	-1	-1	-1	-1	-1	-1	-1	34	-1	-1	-1	-1	-1	-1
